p cnf 200 1110
-101 -58 0
-101 -38 0
-101 -96 0
-101 69 0
-101 3 0
-101 86 0
-101 -48 0
-101 62 0
-101 91 0
-101 -77 0
101 58 38 96 -69 -3 -86 48 -62 -91 77 0
-102 -17 0
-102 58 0
-102 89 0
-102 33 0
-102 47 0
-102 -5 0
-102 -9 0
-102 77 0
-102 24 0
-102 -70 0
102 17 -58 -89 -33 -47 5 9 -77 -24 70 0
-103 3 0
-103 62 0
-103 -79 0
-103 44 0
-103 -39 0
-103 -8 0
-103 -67 0
-103 -34 0
-103 61 0
-103 -47 0
103 -3 -62 79 -44 39 8 67 34 -61 47 0
-104 -87 0
-104 -29 0
-104 64 0
-104 45 0
-104 -37 0
-104 -14 0
-104 72 0
-104 20 0
-104 -1 0
-104 62 0
104 87 29 -64 -45 37 14 -72 -20 1 -62 0
-105 -18 0
-105 -97 0
-105 -37 0
-105 99 0
-105 8 0
-105 5 0
-105 100 0
-105 -33 0
-105 71 0
-105 -64 0
105 18 97 37 -99 -8 -5 -100 33 -71 64 0
-106 37 0
-106 -80 0
-106 -90 0
-106 -6 0
-106 -51 0
-106 7 0
-106 -66 0
-106 32 0
-106 -23 0
-106 -40 0
106 -37 80 90 6 51 -7 66 -32 23 40 0
-107 85 0
-107 -77 0
-107 39 0
-107 -12 0
-107 -65 0
-107 27 0
-107 19 0
-107 32 0
-107 60 0
-107 73 0
107 -85 77 -39 12 65 -27 -19 -32 -60 -73 0
-108 55 0
-108 -43 0
-108 35 0
-108 85 0
-108 -54 0
-108 81 0
-108 -93 0
-108 52 0
-108 31 0
-108 15 0
108 -55 43 -35 -85 54 -81 93 -52 -31 -15 0
-109 -63 0
-109 -90 0
-109 -23 0
-109 -35 0
-109 -75 0
-109 -21 0
-109 -43 0
-109 15 0
-109 27 0
-109 -47 0
109 63 90 23 35 75 21 43 -15 -27 47 0
-110 61 0
-110 -15 0
-110 8 0
-110 91 0
-110 -27 0
-110 -72 0
-110 41 0
-110 -65 0
-110 93 0
-110 5 0
110 -61 15 -8 -91 27 72 -41 65 -93 -5 0
101 102 103 104 105 106 107 108 109 110 0
-111 58 0
-111 3 0
-111 24 0
-111 48 0
-111 60 0
-111 17 0
-111 20 0
-111 -55 0
-111 90 0
-111 -16 0
111 -58 -3 -24 -48 -60 -17 -20 55 -90 16 0
-112 -98 0
-112 97 0
-112 -25 0
-112 -18 0
-112 -43 0
-112 76 0
-112 52 0
-112 -21 0
-112 99 0
-112 -88 0
112 98 -97 25 18 43 -76 -52 21 -99 88 0
-113 -87 0
-113 -79 0
-113 16 0
-113 23 0
-113 -10 0
-113 35 0
-113 42 0
-113 46 0
-113 -70 0
-113 59 0
113 87 79 -16 -23 10 -35 -42 -46 70 -59 0
-114 -26 0
-114 -70 0
-114 32 0
-114 21 0
-114 -52 0
-114 5 0
-114 7 0
-114 -60 0
-114 78 0
-114 29 0
114 26 70 -32 -21 52 -5 -7 60 -78 -29 0
-115 12 0
-115 -63 0
-115 -96 0
-115 49 0
-115 -52 0
-115 -54 0
-115 28 0
-115 5 0
-115 -19 0
-115 -9 0
115 -12 63 96 -49 52 54 -28 -5 19 9 0
-116 -9 0
-116 -40 0
-116 21 0
-116 54 0
-116 -90 0
-116 -57 0
-116 74 0
-116 -79 0
-116 -66 0
-116 48 0
116 9 40 -21 -54 90 57 -74 79 66 -48 0
-117 41 0
-117 -51 0
-117 31 0
-117 76 0
-117 -29 0
-117 -12 0
-117 100 0
-117 88 0
-117 52 0
-117 -43 0
117 -41 51 -31 -76 29 12 -100 -88 -52 43 0
-118 -8 0
-118 -32 0
-118 -60 0
-118 -37 0
-118 11 0
-118 -23 0
-118 30 0
-118 54 0
-118 1 0
-118 -40 0
118 8 32 60 37 -11 23 -30 -54 -1 40 0
-119 37 0
-119 97 0
-119 -52 0
-119 10 0
-119 42 0
-119 -9 0
-119 -32 0
-119 77 0
-119 51 0
-119 83 0
119 -37 -97 52 -10 -42 9 32 -77 -51 -83 0
-120 -75 0
-120 81 0
-120 30 0
-120 46 0
-120 64 0
-120 -55 0
-120 -28 0
-120 -69 0
-120 33 0
-120 53 0
120 75 -81 -30 -46 -64 55 28 69 -33 -53 0
111 112 113 114 115 116 117 118 119 120 0
-121 -56 0
-121 -25 0
-121 55 0
-121 -76 0
-121 -19 0
-121 -88 0
-121 45 0
-121 13 0
-121 -77 0
-121 -4 0
121 56 25 -55 76 19 88 -45 -13 77 4 0
-122 -49 0
-122 26 0
-122 -79 0
-122 -56 0
-122 16 0
-122 -87 0
-122 -64 0
-122 -11 0
-122 -2 0
-122 -14 0
122 49 -26 79 56 -16 87 64 11 2 14 0
-123 -28 0
-123 34 0
-123 -11 0
-123 -99 0
-123 79 0
-123 -53 0
-123 -22 0
-123 -90 0
-123 84 0
-123 -65 0
123 28 -34 11 99 -79 53 22 90 -84 65 0
-124 -99 0
-124 -86 0
-124 84 0
-124 -40 0
-124 46 0
-124 98 0
-124 -38 0
-124 34 0
-124 49 0
-124 13 0
124 99 86 -84 40 -46 -98 38 -34 -49 -13 0
-125 -71 0
-125 92 0
-125 100 0
-125 -95 0
-125 80 0
-125 88 0
-125 3 0
-125 55 0
-125 -16 0
-125 74 0
125 71 -92 -100 95 -80 -88 -3 -55 16 -74 0
-126 -53 0
-126 64 0
-126 -45 0
-126 23 0
-126 -37 0
-126 -98 0
-126 -28 0
-126 76 0
-126 21 0
-126 32 0
126 53 -64 45 -23 37 98 28 -76 -21 -32 0
-127 -51 0
-127 -83 0
-127 13 0
-127 -37 0
-127 -100 0
-127 91 0
-127 -66 0
-127 81 0
-127 -33 0
-127 -76 0
127 51 83 -13 37 100 -91 66 -81 33 76 0
-128 5 0
-128 -86 0
-128 26 0
-128 15 0
-128 -63 0
-128 -97 0
-128 84 0
-128 96 0
-128 16 0
-128 -85 0
128 -5 86 -26 -15 63 97 -84 -96 -16 85 0
-129 -99 0
-129 84 0
-129 1 0
-129 96 0
-129 5 0
-129 38 0
-129 88 0
-129 -90 0
-129 -55 0
-129 16 0
129 99 -84 -1 -96 -5 -38 -88 90 55 -16 0
-130 33 0
-130 71 0
-130 -64 0
-130 36 0
-130 56 0
-130 82 0
-130 -13 0
-130 45 0
-130 -3 0
-130 -17 0
130 -33 -71 64 -36 -56 -82 13 -45 3 17 0
121 122 123 124 125 126 127 128 129 130 0
-131 -54 0
-131 3 0
-131 -12 0
-131 79 0
-131 -18 0
-131 -43 0
-131 23 0
-131 -24 0
-131 45 0
-131 -60 0
131 54 -3 12 -79 18 43 -23 24 -45 60 0
-132 -28 0
-132 -5 0
-132 -77 0
-132 3 0
-132 41 0
-132 7 0
-132 -88 0
-132 -84 0
-132 -81 0
-132 37 0
132 28 5 77 -3 -41 -7 88 84 81 -37 0
-133 -36 0
-133 -55 0
-133 -87 0
-133 -1 0
-133 98 0
-133 26 0
-133 -66 0
-133 -24 0
-133 61 0
-133 83 0
133 36 55 87 1 -98 -26 66 24 -61 -83 0
-134 -40 0
-134 -4 0
-134 -25 0
-134 48 0
-134 -84 0
-134 1 0
-134 6 0
-134 9 0
-134 -34 0
-134 18 0
134 40 4 25 -48 84 -1 -6 -9 34 -18 0
-135 72 0
-135 74 0
-135 63 0
-135 18 0
-135 -59 0
-135 58 0
-135 -12 0
-135 -54 0
-135 -22 0
-135 -100 0
135 -72 -74 -63 -18 59 -58 12 54 22 100 0
-136 -26 0
-136 47 0
-136 -89 0
-136 59 0
-136 92 0
-136 30 0
-136 88 0
-136 83 0
-136 5 0
-136 -62 0
136 26 -47 89 -59 -92 -30 -88 -83 -5 62 0
-137 -51 0
-137 73 0
-137 17 0
-137 86 0
-137 -46 0
-137 93 0
-137 -13 0
-137 -36 0
-137 -12 0
-137 -2 0
137 51 -73 -17 -86 46 -93 13 36 12 2 0
-138 -1 0
-138 -46 0
-138 -38 0
-138 -39 0
-138 12 0
-138 -58 0
-138 -31 0
-138 78 0
-138 44 0
-138 -7 0
138 1 46 38 39 -12 58 31 -78 -44 7 0
-139 87 0
-139 89 0
-139 -99 0
-139 32 0
-139 -53 0
-139 -50 0
-139 70 0
-139 33 0
-139 14 0
-139 36 0
139 -87 -89 99 -32 53 50 -70 -33 -14 -36 0
-140 10 0
-140 -42 0
-140 1 0
-140 -82 0
-140 47 0
-140 85 0
-140 -62 0
-140 -93 0
-140 -79 0
-140 50 0
140 -10 42 -1 82 -47 -85 62 93 79 -50 0
131 132 133 134 135 136 137 138 139 140 0
-141 -92 0
-141 -22 0
-141 61 0
-141 63 0
-141 29 0
-141 15 0
-141 84 0
-141 -20 0
-141 -98 0
-141 -54 0
141 92 22 -61 -63 -29 -15 -84 20 98 54 0
-142 81 0
-142 23 0
-142 74 0
-142 -92 0
-142 -12 0
-142 95 0
-142 52 0
-142 2 0
-142 78 0
-142 -47 0
142 -81 -23 -74 92 12 -95 -52 -2 -78 47 0
-143 -62 0
-143 11 0
-143 16 0
-143 -79 0
-143 22 0
-143 -100 0
-143 -55 0
-143 31 0
-143 -96 0
-143 73 0
143 62 -11 -16 79 -22 100 55 -31 96 -73 0
-144 -91 0
-144 49 0
-144 24 0
-144 -2 0
-144 78 0
-144 73 0
-144 66 0
-144 -84 0
-144 40 0
-144 -18 0
144 91 -49 -24 2 -78 -73 -66 84 -40 18 0
-145 95 0
-145 7 0
-145 -62 0
-145 11 0
-145 -60 0
-145 -16 0
-145 68 0
-145 81 0
-145 -84 0
-145 -82 0
145 -95 -7 62 -11 60 16 -68 -81 84 82 0
-146 24 0
-146 -13 0
-146 -8 0
-146 -86 0
-146 -87 0
-146 12 0
-146 -30 0
-146 -5 0
-146 52 0
-146 92 0
146 -24 13 8 86 87 -12 30 5 -52 -92 0
-147 -52 0
-147 -85 0
-147 -46 0
-147 30 0
-147 23 0
-147 86 0
-147 -5 0
-147 -72 0
-147 -2 0
-147 93 0
147 52 85 46 -30 -23 -86 5 72 2 -93 0
-148 48 0
-148 29 0
-148 98 0
-148 -36 0
-148 55 0
-148 78 0
-148 -42 0
-148 -10 0
-148 -73 0
-148 21 0
148 -48 -29 -98 36 -55 -78 42 10 73 -21 0
-149 -2 0
-149 25 0
-149 -35 0
-149 -57 0
-149 -65 0
-149 -53 0
-149 -70 0
-149 -86 0
-149 -8 0
-149 -61 0
149 2 -25 35 57 65 53 70 86 8 61 0
-150 -62 0
-150 -99 0
-150 66 0
-150 18 0
-150 77 0
-150 -85 0
-150 -12 0
-150 -45 0
-150 -32 0
-150 -48 0
150 62 99 -66 -18 -77 85 12 45 32 48 0
141 142 143 144 145 146 147 148 149 150 0
-151 17 0
-151 10 0
-151 -1 0
-151 -52 0
-151 -34 0
-151 62 0
-151 8 0
-151 -65 0
-151 -81 0
-151 24 0
151 -17 -10 1 52 34 -62 -8 65 81 -24 0
-152 -3 0
-152 14 0
-152 52 0
-152 -4 0
-152 -1 0
-152 48 0
-152 -75 0
-152 34 0
-152 -63 0
-152 -42 0
152 3 -14 -52 4 1 -48 75 -34 63 42 0
-153 -46 0
-153 -19 0
-153 -42 0
-153 44 0
-153 93 0
-153 28 0
-153 88 0
-153 39 0
-153 11 0
-153 -67 0
153 46 19 42 -44 -93 -28 -88 -39 -11 67 0
-154 99 0
-154 -20 0
-154 -37 0
-154 14 0
-154 11 0
-154 47 0
-154 -33 0
-154 -97 0
-154 -43 0
-154 -22 0
154 -99 20 37 -14 -11 -47 33 97 43 22 0
-155 42 0
-155 49 0
-155 -45 0
-155 24 0
-155 28 0
-155 -93 0
-155 -20 0
-155 -46 0
-155 -38 0
-155 -78 0
155 -42 -49 45 -24 -28 93 20 46 38 78 0
-156 82 0
-156 -10 0
-156 86 0
-156 -84 0
-156 79 0
-156 -15 0
-156 -44 0
-156 -5 0
-156 78 0
-156 58 0
156 -82 10 -86 84 -79 15 44 5 -78 -58 0
-157 80 0
-157 50 0
-157 -97 0
-157 41 0
-157 11 0
-157 -26 0
-157 82 0
-157 -27 0
-157 99 0
-157 -20 0
157 -80 -50 97 -41 -11 26 -82 27 -99 20 0
-158 39 0
-158 -64 0
-158 17 0
-158 54 0
-158 31 0
-158 60 0
-158 -27 0
-158 -66 0
-158 -83 0
-158 49 0
158 -39 64 -17 -54 -31 -60 27 66 83 -49 0
-159 -60 0
-159 66 0
-159 -69 0
-159 51 0
-159 45 0
-159 -17 0
-159 -21 0
-159 -65 0
-159 -67 0
-159 -81 0
159 60 -66 69 -51 -45 17 21 65 67 81 0
-160 20 0
-160 86 0
-160 69 0
-160 33 0
-160 -11 0
-160 -47 0
-160 16 0
-160 -90 0
-160 -74 0
-160 85 0
160 -20 -86 -69 -33 11 47 -16 90 74 -85 0
151 152 153 154 155 156 157 158 159 160 0
-161 -91 0
-161 -55 0
-161 -34 0
-161 80 0
-161 -45 0
-161 -50 0
-161 93 0
-161 -10 0
-161 -77 0
-161 88 0
161 91 55 34 -80 45 50 -93 10 77 -88 0
-162 -76 0
-162 -96 0
-162 -21 0
-162 -24 0
-162 -85 0
-162 22 0
-162 47 0
-162 -35 0
-162 -60 0
-162 -68 0
162 76 96 21 24 85 -22 -47 35 60 68 0
-163 92 0
-163 -64 0
-163 38 0
-163 79 0
-163 -75 0
-163 -45 0
-163 7 0
-163 24 0
-163 37 0
-163 41 0
163 -92 64 -38 -79 75 45 -7 -24 -37 -41 0
-164 64 0
-164 -30 0
-164 -97 0
-164 34 0
-164 15 0
-164 -88 0
-164 -35 0
-164 -58 0
-164 -28 0
-164 70 0
164 -64 30 97 -34 -15 88 35 58 28 -70 0
-165 54 0
-165 -83 0
-165 -24 0
-165 -67 0
-165 -52 0
-165 -60 0
-165 68 0
-165 -74 0
-165 10 0
-165 -88 0
165 -54 83 24 67 52 60 -68 74 -10 88 0
-166 -15 0
-166 -3 0
-166 -54 0
-166 -84 0
-166 -97 0
-166 88 0
-166 6 0
-166 -78 0
-166 -68 0
-166 -38 0
166 15 3 54 84 97 -88 -6 78 68 38 0
-167 -24 0
-167 18 0
-167 -3 0
-167 -78 0
-167 -41 0
-167 -5 0
-167 37 0
-167 -42 0
-167 -92 0
-167 -89 0
167 24 -18 3 78 41 5 -37 42 92 89 0
-168 -56 0
-168 72 0
-168 -23 0
-168 6 0
-168 -36 0
-168 11 0
-168 85 0
-168 29 0
-168 -91 0
-168 -7 0
168 56 -72 23 -6 36 -11 -85 -29 91 7 0
-169 -72 0
-169 45 0
-169 -92 0
-169 55 0
-169 6 0
-169 43 0
-169 5 0
-169 46 0
-169 8 0
-169 -35 0
169 72 -45 92 -55 -6 -43 -5 -46 -8 35 0
-170 59 0
-170 85 0
-170 1 0
-170 -22 0
-170 94 0
-170 84 0
-170 29 0
-170 63 0
-170 -64 0
-170 66 0
170 -59 -85 -1 22 -94 -84 -29 -63 64 -66 0
161 162 163 164 165 166 167 168 169 170 0
-171 -98 0
-171 11 0
-171 -24 0
-171 -12 0
-171 22 0
-171 -84 0
-171 -8 0
-171 -70 0
-171 -94 0
-171 4 0
171 98 -11 24 12 -22 84 8 70 94 -4 0
-172 33 0
-172 -49 0
-172 59 0
-172 -40 0
-172 -85 0
-172 -18 0
-172 28 0
-172 -96 0
-172 19 0
-172 62 0
172 -33 49 -59 40 85 18 -28 96 -19 -62 0
-173 -41 0
-173 20 0
-173 -51 0
-173 -68 0
-173 -77 0
-173 -16 0
-173 -42 0
-173 -22 0
-173 29 0
-173 -85 0
173 41 -20 51 68 77 16 42 22 -29 85 0
-174 -4 0
-174 -36 0
-174 20 0
-174 -7 0
-174 32 0
-174 -22 0
-174 -43 0
-174 -59 0
-174 -3 0
-174 11 0
174 4 36 -20 7 -32 22 43 59 3 -11 0
-175 40 0
-175 -28 0
-175 34 0
-175 66 0
-175 -65 0
-175 -92 0
-175 -59 0
-175 -94 0
-175 -84 0
-175 -86 0
175 -40 28 -34 -66 65 92 59 94 84 86 0
-176 89 0
-176 -8 0
-176 1 0
-176 39 0
-176 -86 0
-176 -65 0
-176 -40 0
-176 82 0
-176 90 0
-176 6 0
176 -89 8 -1 -39 86 65 40 -82 -90 -6 0
-177 -26 0
-177 33 0
-177 22 0
-177 85 0
-177 90 0
-177 -51 0
-177 -83 0
-177 -79 0
-177 -67 0
-177 46 0
177 26 -33 -22 -85 -90 51 83 79 67 -46 0
-178 3 0
-178 53 0
-178 -1 0
-178 93 0
-178 -52 0
-178 41 0
-178 65 0
-178 -44 0
-178 -34 0
-178 -68 0
178 -3 -53 1 -93 52 -41 -65 44 34 68 0
-179 42 0
-179 -44 0
-179 -63 0
-179 51 0
-179 16 0
-179 -9 0
-179 2 0
-179 -64 0
-179 -55 0
-179 32 0
179 -42 44 63 -51 -16 9 -2 64 55 -32 0
-180 -10 0
-180 -87 0
-180 90 0
-180 49 0
-180 -5 0
-180 63 0
-180 81 0
-180 27 0
-180 -8 0
-180 -96 0
180 10 87 -90 -49 5 -63 -81 -27 8 96 0
171 172 173 174 175 176 177 178 179 180 0
-181 36 0
-181 -42 0
-181 57 0
-181 -21 0
-181 30 0
-181 80 0
-181 95 0
-181 -59 0
-181 -45 0
-181 79 0
181 -36 42 -57 21 -30 -80 -95 59 45 -79 0
-182 -69 0
-182 -21 0
-182 -10 0
-182 52 0
-182 -1 0
-182 -90 0
-182 -72 0
-182 -22 0
-182 59 0
-182 -13 0
182 69 21 10 -52 1 90 72 22 -59 13 0
-183 43 0
-183 -84 0
-183 -40 0
-183 -98 0
-183 3 0
-183 -75 0
-183 -97 0
-183 -52 0
-183 -48 0
-183 6 0
183 -43 84 40 98 -3 75 97 52 48 -6 0
-184 -28 0
-184 3 0
-184 16 0
-184 -36 0
-184 47 0
-184 -89 0
-184 -70 0
-184 -61 0
-184 -78 0
-184 6 0
184 28 -3 -16 36 -47 89 70 61 78 -6 0
-185 55 0
-185 -90 0
-185 99 0
-185 66 0
-185 -9 0
-185 24 0
-185 25 0
-185 -10 0
-185 6 0
-185 18 0
185 -55 90 -99 -66 9 -24 -25 10 -6 -18 0
-186 -83 0
-186 -28 0
-186 -63 0
-186 -53 0
-186 47 0
-186 -46 0
-186 58 0
-186 69 0
-186 57 0
-186 92 0
186 83 28 63 53 -47 46 -58 -69 -57 -92 0
-187 -98 0
-187 -30 0
-187 92 0
-187 -68 0
-187 -24 0
-187 45 0
-187 25 0
-187 -99 0
-187 -21 0
-187 86 0
187 98 30 -92 68 24 -45 -25 99 21 -86 0
-188 -1 0
-188 43 0
-188 -44 0
-188 74 0
-188 -97 0
-188 72 0
-188 -38 0
-188 -60 0
-188 29 0
-188 -81 0
188 1 -43 44 -74 97 -72 38 60 -29 81 0
-189 -10 0
-189 81 0
-189 3 0
-189 -93 0
-189 -13 0
-189 50 0
-189 62 0
-189 8 0
-189 -77 0
-189 46 0
189 10 -81 -3 93 13 -50 -62 -8 77 -46 0
-190 -74 0
-190 85 0
-190 15 0
-190 -14 0
-190 -4 0
-190 31 0
-190 46 0
-190 -66 0
-190 96 0
-190 -43 0
190 74 -85 -15 14 4 -31 -46 66 -96 43 0
181 182 183 184 185 186 187 188 189 190 0
-191 26 0
-191 4 0
-191 -55 0
-191 64 0
-191 -25 0
-191 -44 0
-191 70 0
-191 74 0
-191 -3 0
-191 84 0
191 -26 -4 55 -64 25 44 -70 -74 3 -84 0
-192 23 0
-192 -32 0
-192 77 0
-192 -33 0
-192 43 0
-192 -49 0
-192 -41 0
-192 93 0
-192 -95 0
-192 -36 0
192 -23 32 -77 33 -43 49 41 -93 95 36 0
-193 -45 0
-193 38 0
-193 -57 0
-193 52 0
-193 66 0
-193 -78 0
-193 -59 0
-193 -53 0
-193 75 0
-193 -80 0
193 45 -38 57 -52 -66 78 59 53 -75 80 0
-194 49 0
-194 -46 0
-194 -57 0
-194 -42 0
-194 2 0
-194 23 0
-194 -78 0
-194 11 0
-194 15 0
-194 98 0
194 -49 46 57 42 -2 -23 78 -11 -15 -98 0
-195 -76 0
-195 79 0
-195 13 0
-195 95 0
-195 96 0
-195 63 0
-195 -78 0
-195 62 0
-195 -45 0
-195 52 0
195 76 -79 -13 -95 -96 -63 78 -62 45 -52 0
-196 -24 0
-196 89 0
-196 40 0
-196 93 0
-196 -14 0
-196 4 0
-196 -76 0
-196 -3 0
-196 -48 0
-196 -19 0
196 24 -89 -40 -93 14 -4 76 3 48 19 0
-197 -85 0
-197 -98 0
-197 -60 0
-197 -88 0
-197 -18 0
-197 30 0
-197 -9 0
-197 23 0
-197 -72 0
-197 -45 0
197 85 98 60 88 18 -30 9 -23 72 45 0
-198 -77 0
-198 55 0
-198 83 0
-198 22 0
-198 81 0
-198 48 0
-198 89 0
-198 9 0
-198 -53 0
-198 -17 0
198 77 -55 -83 -22 -81 -48 -89 -9 53 17 0
-199 -40 0
-199 -26 0
-199 -98 0
-199 9 0
-199 -82 0
-199 27 0
-199 -45 0
-199 -74 0
-199 8 0
-199 -63 0
199 40 26 98 -9 82 -27 45 74 -8 63 0
-200 62 0
-200 79 0
-200 74 0
-200 3 0
-200 -32 0
-200 -88 0
-200 -82 0
-200 -95 0
-200 -49 0
-200 -61 0
200 -62 -79 -74 -3 32 88 82 95 49 61 0
191 192 193 194 195 196 197 198 199 200 0
